p cnf 535 3237
1 2 3 4 5 0
-1 -2 0
-1 -3 0
-1 -4 0
-1 -5 0
-2 -3 0
-2 -4 0
-2 -5 0
-3 -4 0
-3 -5 0
-4 -5 0
6 7 8 9 10 0
-6 -7 0
-6 -8 0
-6 -9 0
-6 -10 0
-7 -8 0
-7 -9 0
-7 -10 0
-8 -9 0
-8 -10 0
-9 -10 0
11 12 13 14 15 0
-11 -12 0
-11 -13 0
-11 -14 0
-11 -15 0
-12 -13 0
-12 -14 0
-12 -15 0
-13 -14 0
-13 -15 0
-14 -15 0
16 17 18 19 20 0
-16 -17 0
-16 -18 0
-16 -19 0
-16 -20 0
-17 -18 0
-17 -19 0
-17 -20 0
-18 -19 0
-18 -20 0
-19 -20 0
21 22 23 24 25 0
-21 -22 0
-21 -23 0
-21 -24 0
-21 -25 0
-22 -23 0
-22 -24 0
-22 -25 0
-23 -24 0
-23 -25 0
-24 -25 0
26 27 28 29 30 0
-26 -27 0
-26 -28 0
-26 -29 0
-26 -30 0
-27 -28 0
-27 -29 0
-27 -30 0
-28 -29 0
-28 -30 0
-29 -30 0
31 32 33 34 35 0
-31 -32 0
-31 -33 0
-31 -34 0
-31 -35 0
-32 -33 0
-32 -34 0
-32 -35 0
-33 -34 0
-33 -35 0
-34 -35 0
36 37 38 39 40 0
-36 -37 0
-36 -38 0
-36 -39 0
-36 -40 0
-37 -38 0
-37 -39 0
-37 -40 0
-38 -39 0
-38 -40 0
-39 -40 0
41 42 43 44 45 0
-41 -42 0
-41 -43 0
-41 -44 0
-41 -45 0
-42 -43 0
-42 -44 0
-42 -45 0
-43 -44 0
-43 -45 0
-44 -45 0
46 47 48 49 50 0
-46 -47 0
-46 -48 0
-46 -49 0
-46 -50 0
-47 -48 0
-47 -49 0
-47 -50 0
-48 -49 0
-48 -50 0
-49 -50 0
51 52 53 54 55 0
-51 -52 0
-51 -53 0
-51 -54 0
-51 -55 0
-52 -53 0
-52 -54 0
-52 -55 0
-53 -54 0
-53 -55 0
-54 -55 0
56 57 58 59 60 0
-56 -57 0
-56 -58 0
-56 -59 0
-56 -60 0
-57 -58 0
-57 -59 0
-57 -60 0
-58 -59 0
-58 -60 0
-59 -60 0
61 62 63 64 65 0
-61 -62 0
-61 -63 0
-61 -64 0
-61 -65 0
-62 -63 0
-62 -64 0
-62 -65 0
-63 -64 0
-63 -65 0
-64 -65 0
66 67 68 69 70 0
-66 -67 0
-66 -68 0
-66 -69 0
-66 -70 0
-67 -68 0
-67 -69 0
-67 -70 0
-68 -69 0
-68 -70 0
-69 -70 0
71 72 73 74 75 0
-71 -72 0
-71 -73 0
-71 -74 0
-71 -75 0
-72 -73 0
-72 -74 0
-72 -75 0
-73 -74 0
-73 -75 0
-74 -75 0
76 77 78 79 80 0
-76 -77 0
-76 -78 0
-76 -79 0
-76 -80 0
-77 -78 0
-77 -79 0
-77 -80 0
-78 -79 0
-78 -80 0
-79 -80 0
81 82 83 84 85 0
-81 -82 0
-81 -83 0
-81 -84 0
-81 -85 0
-82 -83 0
-82 -84 0
-82 -85 0
-83 -84 0
-83 -85 0
-84 -85 0
86 87 88 89 90 0
-86 -87 0
-86 -88 0
-86 -89 0
-86 -90 0
-87 -88 0
-87 -89 0
-87 -90 0
-88 -89 0
-88 -90 0
-89 -90 0
91 92 93 94 95 0
-91 -92 0
-91 -93 0
-91 -94 0
-91 -95 0
-92 -93 0
-92 -94 0
-92 -95 0
-93 -94 0
-93 -95 0
-94 -95 0
96 97 98 99 100 0
-96 -97 0
-96 -98 0
-96 -99 0
-96 -100 0
-97 -98 0
-97 -99 0
-97 -100 0
-98 -99 0
-98 -100 0
-99 -100 0
101 102 103 104 105 0
-101 -102 0
-101 -103 0
-101 -104 0
-101 -105 0
-102 -103 0
-102 -104 0
-102 -105 0
-103 -104 0
-103 -105 0
-104 -105 0
106 107 108 109 110 0
-106 -107 0
-106 -108 0
-106 -109 0
-106 -110 0
-107 -108 0
-107 -109 0
-107 -110 0
-108 -109 0
-108 -110 0
-109 -110 0
111 112 113 114 115 0
-111 -112 0
-111 -113 0
-111 -114 0
-111 -115 0
-112 -113 0
-112 -114 0
-112 -115 0
-113 -114 0
-113 -115 0
-114 -115 0
116 117 118 119 120 0
-116 -117 0
-116 -118 0
-116 -119 0
-116 -120 0
-117 -118 0
-117 -119 0
-117 -120 0
-118 -119 0
-118 -120 0
-119 -120 0
121 122 123 124 125 0
-121 -122 0
-121 -123 0
-121 -124 0
-121 -125 0
-122 -123 0
-122 -124 0
-122 -125 0
-123 -124 0
-123 -125 0
-124 -125 0
126 127 128 129 130 0
-126 -127 0
-126 -128 0
-126 -129 0
-126 -130 0
-127 -128 0
-127 -129 0
-127 -130 0
-128 -129 0
-128 -130 0
-129 -130 0
131 132 133 134 135 0
-131 -132 0
-131 -133 0
-131 -134 0
-131 -135 0
-132 -133 0
-132 -134 0
-132 -135 0
-133 -134 0
-133 -135 0
-134 -135 0
136 137 138 139 140 0
-136 -137 0
-136 -138 0
-136 -139 0
-136 -140 0
-137 -138 0
-137 -139 0
-137 -140 0
-138 -139 0
-138 -140 0
-139 -140 0
141 142 143 144 145 0
-141 -142 0
-141 -143 0
-141 -144 0
-141 -145 0
-142 -143 0
-142 -144 0
-142 -145 0
-143 -144 0
-143 -145 0
-144 -145 0
146 147 148 149 150 0
-146 -147 0
-146 -148 0
-146 -149 0
-146 -150 0
-147 -148 0
-147 -149 0
-147 -150 0
-148 -149 0
-148 -150 0
-149 -150 0
151 152 153 154 155 0
-151 -152 0
-151 -153 0
-151 -154 0
-151 -155 0
-152 -153 0
-152 -154 0
-152 -155 0
-153 -154 0
-153 -155 0
-154 -155 0
156 157 158 159 160 0
-156 -157 0
-156 -158 0
-156 -159 0
-156 -160 0
-157 -158 0
-157 -159 0
-157 -160 0
-158 -159 0
-158 -160 0
-159 -160 0
161 162 163 164 165 0
-161 -162 0
-161 -163 0
-161 -164 0
-161 -165 0
-162 -163 0
-162 -164 0
-162 -165 0
-163 -164 0
-163 -165 0
-164 -165 0
166 167 168 169 170 0
-166 -167 0
-166 -168 0
-166 -169 0
-166 -170 0
-167 -168 0
-167 -169 0
-167 -170 0
-168 -169 0
-168 -170 0
-169 -170 0
171 172 173 174 175 0
-171 -172 0
-171 -173 0
-171 -174 0
-171 -175 0
-172 -173 0
-172 -174 0
-172 -175 0
-173 -174 0
-173 -175 0
-174 -175 0
176 177 178 179 180 0
-176 -177 0
-176 -178 0
-176 -179 0
-176 -180 0
-177 -178 0
-177 -179 0
-177 -180 0
-178 -179 0
-178 -180 0
-179 -180 0
181 182 183 184 185 0
-181 -182 0
-181 -183 0
-181 -184 0
-181 -185 0
-182 -183 0
-182 -184 0
-182 -185 0
-183 -184 0
-183 -185 0
-184 -185 0
186 187 188 189 190 0
-186 -187 0
-186 -188 0
-186 -189 0
-186 -190 0
-187 -188 0
-187 -189 0
-187 -190 0
-188 -189 0
-188 -190 0
-189 -190 0
191 192 193 194 195 0
-191 -192 0
-191 -193 0
-191 -194 0
-191 -195 0
-192 -193 0
-192 -194 0
-192 -195 0
-193 -194 0
-193 -195 0
-194 -195 0
196 197 198 199 200 0
-196 -197 0
-196 -198 0
-196 -199 0
-196 -200 0
-197 -198 0
-197 -199 0
-197 -200 0
-198 -199 0
-198 -200 0
-199 -200 0
201 202 203 204 205 0
-201 -202 0
-201 -203 0
-201 -204 0
-201 -205 0
-202 -203 0
-202 -204 0
-202 -205 0
-203 -204 0
-203 -205 0
-204 -205 0
206 207 208 209 210 0
-206 -207 0
-206 -208 0
-206 -209 0
-206 -210 0
-207 -208 0
-207 -209 0
-207 -210 0
-208 -209 0
-208 -210 0
-209 -210 0
211 212 213 214 215 0
-211 -212 0
-211 -213 0
-211 -214 0
-211 -215 0
-212 -213 0
-212 -214 0
-212 -215 0
-213 -214 0
-213 -215 0
-214 -215 0
216 217 218 219 220 0
-216 -217 0
-216 -218 0
-216 -219 0
-216 -220 0
-217 -218 0
-217 -219 0
-217 -220 0
-218 -219 0
-218 -220 0
-219 -220 0
221 222 223 224 225 0
-221 -222 0
-221 -223 0
-221 -224 0
-221 -225 0
-222 -223 0
-222 -224 0
-222 -225 0
-223 -224 0
-223 -225 0
-224 -225 0
226 227 228 229 230 0
-226 -227 0
-226 -228 0
-226 -229 0
-226 -230 0
-227 -228 0
-227 -229 0
-227 -230 0
-228 -229 0
-228 -230 0
-229 -230 0
231 232 233 234 235 0
-231 -232 0
-231 -233 0
-231 -234 0
-231 -235 0
-232 -233 0
-232 -234 0
-232 -235 0
-233 -234 0
-233 -235 0
-234 -235 0
236 237 238 239 240 0
-236 -237 0
-236 -238 0
-236 -239 0
-236 -240 0
-237 -238 0
-237 -239 0
-237 -240 0
-238 -239 0
-238 -240 0
-239 -240 0
241 242 243 244 245 0
-241 -242 0
-241 -243 0
-241 -244 0
-241 -245 0
-242 -243 0
-242 -244 0
-242 -245 0
-243 -244 0
-243 -245 0
-244 -245 0
246 247 248 249 250 0
-246 -247 0
-246 -248 0
-246 -249 0
-246 -250 0
-247 -248 0
-247 -249 0
-247 -250 0
-248 -249 0
-248 -250 0
-249 -250 0
251 252 253 254 255 0
-251 -252 0
-251 -253 0
-251 -254 0
-251 -255 0
-252 -253 0
-252 -254 0
-252 -255 0
-253 -254 0
-253 -255 0
-254 -255 0
256 257 258 259 260 0
-256 -257 0
-256 -258 0
-256 -259 0
-256 -260 0
-257 -258 0
-257 -259 0
-257 -260 0
-258 -259 0
-258 -260 0
-259 -260 0
261 262 263 264 265 0
-261 -262 0
-261 -263 0
-261 -264 0
-261 -265 0
-262 -263 0
-262 -264 0
-262 -265 0
-263 -264 0
-263 -265 0
-264 -265 0
266 267 268 269 270 0
-266 -267 0
-266 -268 0
-266 -269 0
-266 -270 0
-267 -268 0
-267 -269 0
-267 -270 0
-268 -269 0
-268 -270 0
-269 -270 0
271 272 273 274 275 0
-271 -272 0
-271 -273 0
-271 -274 0
-271 -275 0
-272 -273 0
-272 -274 0
-272 -275 0
-273 -274 0
-273 -275 0
-274 -275 0
276 277 278 279 280 0
-276 -277 0
-276 -278 0
-276 -279 0
-276 -280 0
-277 -278 0
-277 -279 0
-277 -280 0
-278 -279 0
-278 -280 0
-279 -280 0
281 282 283 284 285 0
-281 -282 0
-281 -283 0
-281 -284 0
-281 -285 0
-282 -283 0
-282 -284 0
-282 -285 0
-283 -284 0
-283 -285 0
-284 -285 0
286 287 288 289 290 0
-286 -287 0
-286 -288 0
-286 -289 0
-286 -290 0
-287 -288 0
-287 -289 0
-287 -290 0
-288 -289 0
-288 -290 0
-289 -290 0
291 292 293 294 295 0
-291 -292 0
-291 -293 0
-291 -294 0
-291 -295 0
-292 -293 0
-292 -294 0
-292 -295 0
-293 -294 0
-293 -295 0
-294 -295 0
296 297 298 299 300 0
-296 -297 0
-296 -298 0
-296 -299 0
-296 -300 0
-297 -298 0
-297 -299 0
-297 -300 0
-298 -299 0
-298 -300 0
-299 -300 0
301 302 303 304 305 0
-301 -302 0
-301 -303 0
-301 -304 0
-301 -305 0
-302 -303 0
-302 -304 0
-302 -305 0
-303 -304 0
-303 -305 0
-304 -305 0
306 307 308 309 310 0
-306 -307 0
-306 -308 0
-306 -309 0
-306 -310 0
-307 -308 0
-307 -309 0
-307 -310 0
-308 -309 0
-308 -310 0
-309 -310 0
311 312 313 314 315 0
-311 -312 0
-311 -313 0
-311 -314 0
-311 -315 0
-312 -313 0
-312 -314 0
-312 -315 0
-313 -314 0
-313 -315 0
-314 -315 0
316 317 318 319 320 0
-316 -317 0
-316 -318 0
-316 -319 0
-316 -320 0
-317 -318 0
-317 -319 0
-317 -320 0
-318 -319 0
-318 -320 0
-319 -320 0
321 322 323 324 325 0
-321 -322 0
-321 -323 0
-321 -324 0
-321 -325 0
-322 -323 0
-322 -324 0
-322 -325 0
-323 -324 0
-323 -325 0
-324 -325 0
326 327 328 329 330 0
-326 -327 0
-326 -328 0
-326 -329 0
-326 -330 0
-327 -328 0
-327 -329 0
-327 -330 0
-328 -329 0
-328 -330 0
-329 -330 0
331 332 333 334 335 0
-331 -332 0
-331 -333 0
-331 -334 0
-331 -335 0
-332 -333 0
-332 -334 0
-332 -335 0
-333 -334 0
-333 -335 0
-334 -335 0
336 337 338 339 340 0
-336 -337 0
-336 -338 0
-336 -339 0
-336 -340 0
-337 -338 0
-337 -339 0
-337 -340 0
-338 -339 0
-338 -340 0
-339 -340 0
341 342 343 344 345 0
-341 -342 0
-341 -343 0
-341 -344 0
-341 -345 0
-342 -343 0
-342 -344 0
-342 -345 0
-343 -344 0
-343 -345 0
-344 -345 0
346 347 348 349 350 0
-346 -347 0
-346 -348 0
-346 -349 0
-346 -350 0
-347 -348 0
-347 -349 0
-347 -350 0
-348 -349 0
-348 -350 0
-349 -350 0
351 352 353 354 355 0
-351 -352 0
-351 -353 0
-351 -354 0
-351 -355 0
-352 -353 0
-352 -354 0
-352 -355 0
-353 -354 0
-353 -355 0
-354 -355 0
356 357 358 359 360 0
-356 -357 0
-356 -358 0
-356 -359 0
-356 -360 0
-357 -358 0
-357 -359 0
-357 -360 0
-358 -359 0
-358 -360 0
-359 -360 0
361 362 363 364 365 0
-361 -362 0
-361 -363 0
-361 -364 0
-361 -365 0
-362 -363 0
-362 -364 0
-362 -365 0
-363 -364 0
-363 -365 0
-364 -365 0
366 367 368 369 370 0
-366 -367 0
-366 -368 0
-366 -369 0
-366 -370 0
-367 -368 0
-367 -369 0
-367 -370 0
-368 -369 0
-368 -370 0
-369 -370 0
371 372 373 374 375 0
-371 -372 0
-371 -373 0
-371 -374 0
-371 -375 0
-372 -373 0
-372 -374 0
-372 -375 0
-373 -374 0
-373 -375 0
-374 -375 0
376 377 378 379 380 0
-376 -377 0
-376 -378 0
-376 -379 0
-376 -380 0
-377 -378 0
-377 -379 0
-377 -380 0
-378 -379 0
-378 -380 0
-379 -380 0
381 382 383 384 385 0
-381 -382 0
-381 -383 0
-381 -384 0
-381 -385 0
-382 -383 0
-382 -384 0
-382 -385 0
-383 -384 0
-383 -385 0
-384 -385 0
386 387 388 389 390 0
-386 -387 0
-386 -388 0
-386 -389 0
-386 -390 0
-387 -388 0
-387 -389 0
-387 -390 0
-388 -389 0
-388 -390 0
-389 -390 0
391 392 393 394 395 0
-391 -392 0
-391 -393 0
-391 -394 0
-391 -395 0
-392 -393 0
-392 -394 0
-392 -395 0
-393 -394 0
-393 -395 0
-394 -395 0
396 397 398 399 400 0
-396 -397 0
-396 -398 0
-396 -399 0
-396 -400 0
-397 -398 0
-397 -399 0
-397 -400 0
-398 -399 0
-398 -400 0
-399 -400 0
401 402 403 404 405 0
-401 -402 0
-401 -403 0
-401 -404 0
-401 -405 0
-402 -403 0
-402 -404 0
-402 -405 0
-403 -404 0
-403 -405 0
-404 -405 0
406 407 408 409 410 0
-406 -407 0
-406 -408 0
-406 -409 0
-406 -410 0
-407 -408 0
-407 -409 0
-407 -410 0
-408 -409 0
-408 -410 0
-409 -410 0
411 412 413 414 415 0
-411 -412 0
-411 -413 0
-411 -414 0
-411 -415 0
-412 -413 0
-412 -414 0
-412 -415 0
-413 -414 0
-413 -415 0
-414 -415 0
416 417 418 419 420 0
-416 -417 0
-416 -418 0
-416 -419 0
-416 -420 0
-417 -418 0
-417 -419 0
-417 -420 0
-418 -419 0
-418 -420 0
-419 -420 0
421 422 423 424 425 0
-421 -422 0
-421 -423 0
-421 -424 0
-421 -425 0
-422 -423 0
-422 -424 0
-422 -425 0
-423 -424 0
-423 -425 0
-424 -425 0
426 427 428 429 430 0
-426 -427 0
-426 -428 0
-426 -429 0
-426 -430 0
-427 -428 0
-427 -429 0
-427 -430 0
-428 -429 0
-428 -430 0
-429 -430 0
431 432 433 434 435 0
-431 -432 0
-431 -433 0
-431 -434 0
-431 -435 0
-432 -433 0
-432 -434 0
-432 -435 0
-433 -434 0
-433 -435 0
-434 -435 0
436 437 438 439 440 0
-436 -437 0
-436 -438 0
-436 -439 0
-436 -440 0
-437 -438 0
-437 -439 0
-437 -440 0
-438 -439 0
-438 -440 0
-439 -440 0
441 442 443 444 445 0
-441 -442 0
-441 -443 0
-441 -444 0
-441 -445 0
-442 -443 0
-442 -444 0
-442 -445 0
-443 -444 0
-443 -445 0
-444 -445 0
446 447 448 449 450 0
-446 -447 0
-446 -448 0
-446 -449 0
-446 -450 0
-447 -448 0
-447 -449 0
-447 -450 0
-448 -449 0
-448 -450 0
-449 -450 0
451 452 453 454 455 0
-451 -452 0
-451 -453 0
-451 -454 0
-451 -455 0
-452 -453 0
-452 -454 0
-452 -455 0
-453 -454 0
-453 -455 0
-454 -455 0
456 457 458 459 460 0
-456 -457 0
-456 -458 0
-456 -459 0
-456 -460 0
-457 -458 0
-457 -459 0
-457 -460 0
-458 -459 0
-458 -460 0
-459 -460 0
461 462 463 464 465 0
-461 -462 0
-461 -463 0
-461 -464 0
-461 -465 0
-462 -463 0
-462 -464 0
-462 -465 0
-463 -464 0
-463 -465 0
-464 -465 0
466 467 468 469 470 0
-466 -467 0
-466 -468 0
-466 -469 0
-466 -470 0
-467 -468 0
-467 -469 0
-467 -470 0
-468 -469 0
-468 -470 0
-469 -470 0
471 472 473 474 475 0
-471 -472 0
-471 -473 0
-471 -474 0
-471 -475 0
-472 -473 0
-472 -474 0
-472 -475 0
-473 -474 0
-473 -475 0
-474 -475 0
476 477 478 479 480 0
-476 -477 0
-476 -478 0
-476 -479 0
-476 -480 0
-477 -478 0
-477 -479 0
-477 -480 0
-478 -479 0
-478 -480 0
-479 -480 0
481 482 483 484 485 0
-481 -482 0
-481 -483 0
-481 -484 0
-481 -485 0
-482 -483 0
-482 -484 0
-482 -485 0
-483 -484 0
-483 -485 0
-484 -485 0
486 487 488 489 490 0
-486 -487 0
-486 -488 0
-486 -489 0
-486 -490 0
-487 -488 0
-487 -489 0
-487 -490 0
-488 -489 0
-488 -490 0
-489 -490 0
491 492 493 494 495 0
-491 -492 0
-491 -493 0
-491 -494 0
-491 -495 0
-492 -493 0
-492 -494 0
-492 -495 0
-493 -494 0
-493 -495 0
-494 -495 0
496 497 498 499 500 0
-496 -497 0
-496 -498 0
-496 -499 0
-496 -500 0
-497 -498 0
-497 -499 0
-497 -500 0
-498 -499 0
-498 -500 0
-499 -500 0
501 502 503 504 505 0
-501 -502 0
-501 -503 0
-501 -504 0
-501 -505 0
-502 -503 0
-502 -504 0
-502 -505 0
-503 -504 0
-503 -505 0
-504 -505 0
506 507 508 509 510 0
-506 -507 0
-506 -508 0
-506 -509 0
-506 -510 0
-507 -508 0
-507 -509 0
-507 -510 0
-508 -509 0
-508 -510 0
-509 -510 0
511 512 513 514 515 0
-511 -512 0
-511 -513 0
-511 -514 0
-511 -515 0
-512 -513 0
-512 -514 0
-512 -515 0
-513 -514 0
-513 -515 0
-514 -515 0
516 517 518 519 520 0
-516 -517 0
-516 -518 0
-516 -519 0
-516 -520 0
-517 -518 0
-517 -519 0
-517 -520 0
-518 -519 0
-518 -520 0
-519 -520 0
521 522 523 524 525 0
-521 -522 0
-521 -523 0
-521 -524 0
-521 -525 0
-522 -523 0
-522 -524 0
-522 -525 0
-523 -524 0
-523 -525 0
-524 -525 0
526 527 528 529 530 0
-526 -527 0
-526 -528 0
-526 -529 0
-526 -530 0
-527 -528 0
-527 -529 0
-527 -530 0
-528 -529 0
-528 -530 0
-529 -530 0
531 532 533 534 535 0
-531 -532 0
-531 -533 0
-531 -534 0
-531 -535 0
-532 -533 0
-532 -534 0
-532 -535 0
-533 -534 0
-533 -535 0
-534 -535 0
-1 -21 0
-2 -22 0
-3 -23 0
-4 -24 0
-5 -25 0
-1 -46 0
-2 -47 0
-3 -48 0
-4 -49 0
-5 -50 0
-6 -21 0
-7 -22 0
-8 -23 0
-9 -24 0
-10 -25 0
-6 -26 0
-7 -27 0
-8 -28 0
-9 -29 0
-10 -30 0
-6 -31 0
-7 -32 0
-8 -33 0
-9 -34 0
-10 -35 0
-6 -36 0
-7 -37 0
-8 -38 0
-9 -39 0
-10 -40 0
-6 -41 0
-7 -42 0
-8 -43 0
-9 -44 0
-10 -45 0
-6 -51 0
-7 -52 0
-8 -53 0
-9 -54 0
-10 -55 0
-6 -76 0
-7 -77 0
-8 -78 0
-9 -79 0
-10 -80 0
-6 -121 0
-7 -122 0
-8 -123 0
-9 -124 0
-10 -125 0
-6 -131 0
-7 -132 0
-8 -133 0
-9 -134 0
-10 -135 0
-6 -166 0
-7 -167 0
-8 -168 0
-9 -169 0
-10 -170 0
-6 -171 0
-7 -172 0
-8 -173 0
-9 -174 0
-10 -175 0
-6 -176 0
-7 -177 0
-8 -178 0
-9 -179 0
-10 -180 0
-6 -216 0
-7 -217 0
-8 -218 0
-9 -219 0
-10 -220 0
-6 -221 0
-7 -222 0
-8 -223 0
-9 -224 0
-10 -225 0
-6 -241 0
-7 -242 0
-8 -243 0
-9 -244 0
-10 -245 0
-6 -251 0
-7 -252 0
-8 -253 0
-9 -254 0
-10 -255 0
-6 -261 0
-7 -262 0
-8 -263 0
-9 -264 0
-10 -265 0
-6 -296 0
-7 -297 0
-8 -298 0
-9 -299 0
-10 -300 0
-6 -376 0
-7 -377 0
-8 -378 0
-9 -379 0
-10 -380 0
-6 -401 0
-7 -402 0
-8 -403 0
-9 -404 0
-10 -405 0
-6 -471 0
-7 -472 0
-8 -473 0
-9 -474 0
-10 -475 0
-6 -521 0
-7 -522 0
-8 -523 0
-9 -524 0
-10 -525 0
-11 -21 0
-12 -22 0
-13 -23 0
-14 -24 0
-15 -25 0
-11 -26 0
-12 -27 0
-13 -28 0
-14 -29 0
-15 -30 0
-11 -61 0
-12 -62 0
-13 -63 0
-14 -64 0
-15 -65 0
-11 -206 0
-12 -207 0
-13 -208 0
-14 -209 0
-15 -210 0
-11 -241 0
-12 -242 0
-13 -243 0
-14 -244 0
-15 -245 0
-11 -261 0
-12 -262 0
-13 -263 0
-14 -264 0
-15 -265 0
-11 -281 0
-12 -282 0
-13 -283 0
-14 -284 0
-15 -285 0
-11 -316 0
-12 -317 0
-13 -318 0
-14 -319 0
-15 -320 0
-11 -326 0
-12 -327 0
-13 -328 0
-14 -329 0
-15 -330 0
-11 -341 0
-12 -342 0
-13 -343 0
-14 -344 0
-15 -345 0
-11 -381 0
-12 -382 0
-13 -383 0
-14 -384 0
-15 -385 0
-11 -426 0
-12 -427 0
-13 -428 0
-14 -429 0
-15 -430 0
-16 -21 0
-17 -22 0
-18 -23 0
-19 -24 0
-20 -25 0
-16 -26 0
-17 -27 0
-18 -28 0
-19 -29 0
-20 -30 0
-16 -31 0
-17 -32 0
-18 -33 0
-19 -34 0
-20 -35 0
-16 -36 0
-17 -37 0
-18 -38 0
-19 -39 0
-20 -40 0
-16 -46 0
-17 -47 0
-18 -48 0
-19 -49 0
-20 -50 0
-16 -186 0
-17 -187 0
-18 -188 0
-19 -189 0
-20 -190 0
-16 -376 0
-17 -377 0
-18 -378 0
-19 -379 0
-20 -380 0
-16 -486 0
-17 -487 0
-18 -488 0
-19 -489 0
-20 -490 0
-16 -491 0
-17 -492 0
-18 -493 0
-19 -494 0
-20 -495 0
-16 -506 0
-17 -507 0
-18 -508 0
-19 -509 0
-20 -510 0
-21 -26 0
-22 -27 0
-23 -28 0
-24 -29 0
-25 -30 0
-21 -31 0
-22 -32 0
-23 -33 0
-24 -34 0
-25 -35 0
-21 -36 0
-22 -37 0
-23 -38 0
-24 -39 0
-25 -40 0
-21 -41 0
-22 -42 0
-23 -43 0
-24 -44 0
-25 -45 0
-21 -56 0
-22 -57 0
-23 -58 0
-24 -59 0
-25 -60 0
-21 -61 0
-22 -62 0
-23 -63 0
-24 -64 0
-25 -65 0
-21 -66 0
-22 -67 0
-23 -68 0
-24 -69 0
-25 -70 0
-21 -86 0
-22 -87 0
-23 -88 0
-24 -89 0
-25 -90 0
-21 -91 0
-22 -92 0
-23 -93 0
-24 -94 0
-25 -95 0
-21 -96 0
-22 -97 0
-23 -98 0
-24 -99 0
-25 -100 0
-21 -101 0
-22 -102 0
-23 -103 0
-24 -104 0
-25 -105 0
-21 -106 0
-22 -107 0
-23 -108 0
-24 -109 0
-25 -110 0
-21 -116 0
-22 -117 0
-23 -118 0
-24 -119 0
-25 -120 0
-21 -131 0
-22 -132 0
-23 -133 0
-24 -134 0
-25 -135 0
-21 -136 0
-22 -137 0
-23 -138 0
-24 -139 0
-25 -140 0
-21 -141 0
-22 -142 0
-23 -143 0
-24 -144 0
-25 -145 0
-21 -171 0
-22 -172 0
-23 -173 0
-24 -174 0
-25 -175 0
-21 -176 0
-22 -177 0
-23 -178 0
-24 -179 0
-25 -180 0
-21 -181 0
-22 -182 0
-23 -183 0
-24 -184 0
-25 -185 0
-21 -186 0
-22 -187 0
-23 -188 0
-24 -189 0
-25 -190 0
-21 -206 0
-22 -207 0
-23 -208 0
-24 -209 0
-25 -210 0
-21 -211 0
-22 -212 0
-23 -213 0
-24 -214 0
-25 -215 0
-21 -216 0
-22 -217 0
-23 -218 0
-24 -219 0
-25 -220 0
-21 -226 0
-22 -227 0
-23 -228 0
-24 -229 0
-25 -230 0
-21 -231 0
-22 -232 0
-23 -233 0
-24 -234 0
-25 -235 0
-21 -236 0
-22 -237 0
-23 -238 0
-24 -239 0
-25 -240 0
-21 -296 0
-22 -297 0
-23 -298 0
-24 -299 0
-25 -300 0
-21 -301 0
-22 -302 0
-23 -303 0
-24 -304 0
-25 -305 0
-21 -306 0
-22 -307 0
-23 -308 0
-24 -309 0
-25 -310 0
-21 -406 0
-22 -407 0
-23 -408 0
-24 -409 0
-25 -410 0
-21 -421 0
-22 -422 0
-23 -423 0
-24 -424 0
-25 -425 0
-21 -441 0
-22 -442 0
-23 -443 0
-24 -444 0
-25 -445 0
-21 -451 0
-22 -452 0
-23 -453 0
-24 -454 0
-25 -455 0
-21 -461 0
-22 -462 0
-23 -463 0
-24 -464 0
-25 -465 0
-21 -481 0
-22 -482 0
-23 -483 0
-24 -484 0
-25 -485 0
-21 -511 0
-22 -512 0
-23 -513 0
-24 -514 0
-25 -515 0
-26 -31 0
-27 -32 0
-28 -33 0
-29 -34 0
-30 -35 0
-26 -36 0
-27 -37 0
-28 -38 0
-29 -39 0
-30 -40 0
-26 -41 0
-27 -42 0
-28 -43 0
-29 -44 0
-30 -45 0
-26 -46 0
-27 -47 0
-28 -48 0
-29 -49 0
-30 -50 0
-26 -51 0
-27 -52 0
-28 -53 0
-29 -54 0
-30 -55 0
-26 -56 0
-27 -57 0
-28 -58 0
-29 -59 0
-30 -60 0
-26 -66 0
-27 -67 0
-28 -68 0
-29 -69 0
-30 -70 0
-26 -71 0
-27 -72 0
-28 -73 0
-29 -74 0
-30 -75 0
-26 -76 0
-27 -77 0
-28 -78 0
-29 -79 0
-30 -80 0
-26 -81 0
-27 -82 0
-28 -83 0
-29 -84 0
-30 -85 0
-26 -91 0
-27 -92 0
-28 -93 0
-29 -94 0
-30 -95 0
-26 -96 0
-27 -97 0
-28 -98 0
-29 -99 0
-30 -100 0
-26 -121 0
-27 -122 0
-28 -123 0
-29 -124 0
-30 -125 0
-26 -131 0
-27 -132 0
-28 -133 0
-29 -134 0
-30 -135 0
-26 -141 0
-27 -142 0
-28 -143 0
-29 -144 0
-30 -145 0
-26 -156 0
-27 -157 0
-28 -158 0
-29 -159 0
-30 -160 0
-26 -176 0
-27 -177 0
-28 -178 0
-29 -179 0
-30 -180 0
-26 -181 0
-27 -182 0
-28 -183 0
-29 -184 0
-30 -185 0
-26 -201 0
-27 -202 0
-28 -203 0
-29 -204 0
-30 -205 0
-26 -211 0
-27 -212 0
-28 -213 0
-29 -214 0
-30 -215 0
-26 -256 0
-27 -257 0
-28 -258 0
-29 -259 0
-30 -260 0
-26 -266 0
-27 -267 0
-28 -268 0
-29 -269 0
-30 -270 0
-26 -281 0
-27 -282 0
-28 -283 0
-29 -284 0
-30 -285 0
-26 -286 0
-27 -287 0
-28 -288 0
-29 -289 0
-30 -290 0
-26 -311 0
-27 -312 0
-28 -313 0
-29 -314 0
-30 -315 0
-26 -326 0
-27 -327 0
-28 -328 0
-29 -329 0
-30 -330 0
-26 -361 0
-27 -362 0
-28 -363 0
-29 -364 0
-30 -365 0
-26 -371 0
-27 -372 0
-28 -373 0
-29 -374 0
-30 -375 0
-26 -396 0
-27 -397 0
-28 -398 0
-29 -399 0
-30 -400 0
-26 -416 0
-27 -417 0
-28 -418 0
-29 -419 0
-30 -420 0
-26 -421 0
-27 -422 0
-28 -423 0
-29 -424 0
-30 -425 0
-26 -436 0
-27 -437 0
-28 -438 0
-29 -439 0
-30 -440 0
-26 -456 0
-27 -457 0
-28 -458 0
-29 -459 0
-30 -460 0
-26 -496 0
-27 -497 0
-28 -498 0
-29 -499 0
-30 -500 0
-26 -506 0
-27 -507 0
-28 -508 0
-29 -509 0
-30 -510 0
-26 -511 0
-27 -512 0
-28 -513 0
-29 -514 0
-30 -515 0
-26 -526 0
-27 -527 0
-28 -528 0
-29 -529 0
-30 -530 0
-26 -531 0
-27 -532 0
-28 -533 0
-29 -534 0
-30 -535 0
-31 -61 0
-32 -62 0
-33 -63 0
-34 -64 0
-35 -65 0
-31 -91 0
-32 -92 0
-33 -93 0
-34 -94 0
-35 -95 0
-31 -101 0
-32 -102 0
-33 -103 0
-34 -104 0
-35 -105 0
-31 -271 0
-32 -272 0
-33 -273 0
-34 -274 0
-35 -275 0
-31 -311 0
-32 -312 0
-33 -313 0
-34 -314 0
-35 -315 0
-31 -411 0
-32 -412 0
-33 -413 0
-34 -414 0
-35 -415 0
-31 -496 0
-32 -497 0
-33 -498 0
-34 -499 0
-35 -500 0
-36 -41 0
-37 -42 0
-38 -43 0
-39 -44 0
-40 -45 0
-36 -51 0
-37 -52 0
-38 -53 0
-39 -54 0
-40 -55 0
-36 -71 0
-37 -72 0
-38 -73 0
-39 -74 0
-40 -75 0
-36 -91 0
-37 -92 0
-38 -93 0
-39 -94 0
-40 -95 0
-36 -111 0
-37 -112 0
-38 -113 0
-39 -114 0
-40 -115 0
-36 -146 0
-37 -147 0
-38 -148 0
-39 -149 0
-40 -150 0
-36 -156 0
-37 -157 0
-38 -158 0
-39 -159 0
-40 -160 0
-36 -191 0
-37 -192 0
-38 -193 0
-39 -194 0
-40 -195 0
-36 -211 0
-37 -212 0
-38 -213 0
-39 -214 0
-40 -215 0
-36 -236 0
-37 -237 0
-38 -238 0
-39 -239 0
-40 -240 0
-36 -241 0
-37 -242 0
-38 -243 0
-39 -244 0
-40 -245 0
-36 -296 0
-37 -297 0
-38 -298 0
-39 -299 0
-40 -300 0
-36 -426 0
-37 -427 0
-38 -428 0
-39 -429 0
-40 -430 0
-41 -46 0
-42 -47 0
-43 -48 0
-44 -49 0
-45 -50 0
-41 -66 0
-42 -67 0
-43 -68 0
-44 -69 0
-45 -70 0
-41 -76 0
-42 -77 0
-43 -78 0
-44 -79 0
-45 -80 0
-41 -96 0
-42 -97 0
-43 -98 0
-44 -99 0
-45 -100 0
-41 -111 0
-42 -112 0
-43 -113 0
-44 -114 0
-45 -115 0
-41 -116 0
-42 -117 0
-43 -118 0
-44 -119 0
-45 -120 0
-41 -161 0
-42 -162 0
-43 -163 0
-44 -164 0
-45 -165 0
-41 -171 0
-42 -172 0
-43 -173 0
-44 -174 0
-45 -175 0
-41 -181 0
-42 -182 0
-43 -183 0
-44 -184 0
-45 -185 0
-41 -221 0
-42 -222 0
-43 -223 0
-44 -224 0
-45 -225 0
-41 -236 0
-42 -237 0
-43 -238 0
-44 -239 0
-45 -240 0
-41 -351 0
-42 -352 0
-43 -353 0
-44 -354 0
-45 -355 0
-41 -421 0
-42 -422 0
-43 -423 0
-44 -424 0
-45 -425 0
-41 -491 0
-42 -492 0
-43 -493 0
-44 -494 0
-45 -495 0
-41 -501 0
-42 -502 0
-43 -503 0
-44 -504 0
-45 -505 0
-46 -51 0
-47 -52 0
-48 -53 0
-49 -54 0
-50 -55 0
-46 -56 0
-47 -57 0
-48 -58 0
-49 -59 0
-50 -60 0
-46 -61 0
-47 -62 0
-48 -63 0
-49 -64 0
-50 -65 0
-46 -66 0
-47 -67 0
-48 -68 0
-49 -69 0
-50 -70 0
-46 -71 0
-47 -72 0
-48 -73 0
-49 -74 0
-50 -75 0
-46 -76 0
-47 -77 0
-48 -78 0
-49 -79 0
-50 -80 0
-46 -86 0
-47 -87 0
-48 -88 0
-49 -89 0
-50 -90 0
-46 -101 0
-47 -102 0
-48 -103 0
-49 -104 0
-50 -105 0
-46 -106 0
-47 -107 0
-48 -108 0
-49 -109 0
-50 -110 0
-46 -126 0
-47 -127 0
-48 -128 0
-49 -129 0
-50 -130 0
-46 -136 0
-47 -137 0
-48 -138 0
-49 -139 0
-50 -140 0
-46 -141 0
-47 -142 0
-48 -143 0
-49 -144 0
-50 -145 0
-46 -151 0
-47 -152 0
-48 -153 0
-49 -154 0
-50 -155 0
-46 -161 0
-47 -162 0
-48 -163 0
-49 -164 0
-50 -165 0
-46 -176 0
-47 -177 0
-48 -178 0
-49 -179 0
-50 -180 0
-46 -186 0
-47 -187 0
-48 -188 0
-49 -189 0
-50 -190 0
-46 -206 0
-47 -207 0
-48 -208 0
-49 -209 0
-50 -210 0
-46 -226 0
-47 -227 0
-48 -228 0
-49 -229 0
-50 -230 0
-46 -246 0
-47 -247 0
-48 -248 0
-49 -249 0
-50 -250 0
-46 -251 0
-47 -252 0
-48 -253 0
-49 -254 0
-50 -255 0
-46 -291 0
-47 -292 0
-48 -293 0
-49 -294 0
-50 -295 0
-46 -316 0
-47 -317 0
-48 -318 0
-49 -319 0
-50 -320 0
-46 -321 0
-47 -322 0
-48 -323 0
-49 -324 0
-50 -325 0
-46 -371 0
-47 -372 0
-48 -373 0
-49 -374 0
-50 -375 0
-46 -391 0
-47 -392 0
-48 -393 0
-49 -394 0
-50 -395 0
-46 -406 0
-47 -407 0
-48 -408 0
-49 -409 0
-50 -410 0
-46 -446 0
-47 -447 0
-48 -448 0
-49 -449 0
-50 -450 0
-46 -516 0
-47 -517 0
-48 -518 0
-49 -519 0
-50 -520 0
-46 -521 0
-47 -522 0
-48 -523 0
-49 -524 0
-50 -525 0
-51 -56 0
-52 -57 0
-53 -58 0
-54 -59 0
-55 -60 0
-51 -111 0
-52 -112 0
-53 -113 0
-54 -114 0
-55 -115 0
-51 -126 0
-52 -127 0
-53 -128 0
-54 -129 0
-55 -130 0
-51 -146 0
-52 -147 0
-53 -148 0
-54 -149 0
-55 -150 0
-51 -151 0
-52 -152 0
-53 -153 0
-54 -154 0
-55 -155 0
-51 -331 0
-52 -332 0
-53 -333 0
-54 -334 0
-55 -335 0
-56 -81 0
-57 -82 0
-58 -83 0
-59 -84 0
-60 -85 0
-56 -96 0
-57 -97 0
-58 -98 0
-59 -99 0
-60 -100 0
-56 -121 0
-57 -122 0
-58 -123 0
-59 -124 0
-60 -125 0
-56 -186 0
-57 -187 0
-58 -188 0
-59 -189 0
-60 -190 0
-56 -196 0
-57 -197 0
-58 -198 0
-59 -199 0
-60 -200 0
-56 -211 0
-57 -212 0
-58 -213 0
-59 -214 0
-60 -215 0
-56 -261 0
-57 -262 0
-58 -263 0
-59 -264 0
-60 -265 0
-56 -291 0
-57 -292 0
-58 -293 0
-59 -294 0
-60 -295 0
-56 -346 0
-57 -347 0
-58 -348 0
-59 -349 0
-60 -350 0
-56 -361 0
-57 -362 0
-58 -363 0
-59 -364 0
-60 -365 0
-56 -376 0
-57 -377 0
-58 -378 0
-59 -379 0
-60 -380 0
-56 -476 0
-57 -477 0
-58 -478 0
-59 -479 0
-60 -480 0
-61 -81 0
-62 -82 0
-63 -83 0
-64 -84 0
-65 -85 0
-61 -106 0
-62 -107 0
-63 -108 0
-64 -109 0
-65 -110 0
-61 -151 0
-62 -152 0
-63 -153 0
-64 -154 0
-65 -155 0
-61 -166 0
-62 -167 0
-63 -168 0
-64 -169 0
-65 -170 0
-61 -281 0
-62 -282 0
-63 -283 0
-64 -284 0
-65 -285 0
-61 -321 0
-62 -322 0
-63 -323 0
-64 -324 0
-65 -325 0
-61 -486 0
-62 -487 0
-63 -488 0
-64 -489 0
-65 -490 0
-66 -71 0
-67 -72 0
-68 -73 0
-69 -74 0
-70 -75 0
-66 -201 0
-67 -202 0
-68 -203 0
-69 -204 0
-70 -205 0
-66 -311 0
-67 -312 0
-68 -313 0
-69 -314 0
-70 -315 0
-66 -336 0
-67 -337 0
-68 -338 0
-69 -339 0
-70 -340 0
-66 -386 0
-67 -387 0
-68 -388 0
-69 -389 0
-70 -390 0
-66 -446 0
-67 -447 0
-68 -448 0
-69 -449 0
-70 -450 0
-66 -476 0
-67 -477 0
-68 -478 0
-69 -479 0
-70 -480 0
-71 -86 0
-72 -87 0
-73 -88 0
-74 -89 0
-75 -90 0
-71 -146 0
-72 -147 0
-73 -148 0
-74 -149 0
-75 -150 0
-71 -206 0
-72 -207 0
-73 -208 0
-74 -209 0
-75 -210 0
-71 -256 0
-72 -257 0
-73 -258 0
-74 -259 0
-75 -260 0
-71 -346 0
-72 -347 0
-73 -348 0
-74 -349 0
-75 -350 0
-71 -361 0
-72 -362 0
-73 -363 0
-74 -364 0
-75 -365 0
-71 -386 0
-72 -387 0
-73 -388 0
-74 -389 0
-75 -390 0
-76 -81 0
-77 -82 0
-78 -83 0
-79 -84 0
-80 -85 0
-76 -86 0
-77 -87 0
-78 -88 0
-79 -89 0
-80 -90 0
-76 -111 0
-77 -112 0
-78 -113 0
-79 -114 0
-80 -115 0
-76 -116 0
-77 -117 0
-78 -118 0
-79 -119 0
-80 -120 0
-76 -126 0
-77 -127 0
-78 -128 0
-79 -129 0
-80 -130 0
-76 -166 0
-77 -167 0
-78 -168 0
-79 -169 0
-80 -170 0
-76 -171 0
-77 -172 0
-78 -173 0
-79 -174 0
-80 -175 0
-76 -226 0
-77 -227 0
-78 -228 0
-79 -229 0
-80 -230 0
-76 -246 0
-77 -247 0
-78 -248 0
-79 -249 0
-80 -250 0
-76 -356 0
-77 -357 0
-78 -358 0
-79 -359 0
-80 -360 0
-76 -366 0
-77 -367 0
-78 -368 0
-79 -369 0
-80 -370 0
-76 -416 0
-77 -417 0
-78 -418 0
-79 -419 0
-80 -420 0
-76 -501 0
-77 -502 0
-78 -503 0
-79 -504 0
-80 -505 0
-81 -126 0
-82 -127 0
-83 -128 0
-84 -129 0
-85 -130 0
-81 -161 0
-82 -162 0
-83 -163 0
-84 -164 0
-85 -165 0
-81 -276 0
-82 -277 0
-83 -278 0
-84 -279 0
-85 -280 0
-81 -351 0
-82 -352 0
-83 -353 0
-84 -354 0
-85 -355 0
-81 -366 0
-82 -367 0
-83 -368 0
-84 -369 0
-85 -370 0
-81 -441 0
-82 -442 0
-83 -443 0
-84 -444 0
-85 -445 0
-86 -106 0
-87 -107 0
-88 -108 0
-89 -109 0
-90 -110 0
-86 -191 0
-87 -192 0
-88 -193 0
-89 -194 0
-90 -195 0
-86 -231 0
-87 -232 0
-88 -233 0
-89 -234 0
-90 -235 0
-86 -331 0
-87 -332 0
-88 -333 0
-89 -334 0
-90 -335 0
-86 -391 0
-87 -392 0
-88 -393 0
-89 -394 0
-90 -395 0
-86 -416 0
-87 -417 0
-88 -418 0
-89 -419 0
-90 -420 0
-86 -506 0
-87 -507 0
-88 -508 0
-89 -509 0
-90 -510 0
-86 -521 0
-87 -522 0
-88 -523 0
-89 -524 0
-90 -525 0
-91 -101 0
-92 -102 0
-93 -103 0
-94 -104 0
-95 -105 0
-91 -156 0
-92 -157 0
-93 -158 0
-94 -159 0
-95 -160 0
-91 -196 0
-92 -197 0
-93 -198 0
-94 -199 0
-95 -200 0
-91 -226 0
-92 -227 0
-93 -228 0
-94 -229 0
-95 -230 0
-91 -231 0
-92 -232 0
-93 -233 0
-94 -234 0
-95 -235 0
-91 -301 0
-92 -302 0
-93 -303 0
-94 -304 0
-95 -305 0
-91 -376 0
-92 -377 0
-93 -378 0
-94 -379 0
-95 -380 0
-91 -406 0
-92 -407 0
-93 -408 0
-94 -409 0
-95 -410 0
-91 -426 0
-92 -427 0
-93 -428 0
-94 -429 0
-95 -430 0
-91 -531 0
-92 -532 0
-93 -533 0
-94 -534 0
-95 -535 0
-96 -131 0
-97 -132 0
-98 -133 0
-99 -134 0
-100 -135 0
-96 -236 0
-97 -237 0
-98 -238 0
-99 -239 0
-100 -240 0
-96 -316 0
-97 -317 0
-98 -318 0
-99 -319 0
-100 -320 0
-101 -116 0
-102 -117 0
-103 -118 0
-104 -119 0
-105 -120 0
-101 -216 0
-102 -217 0
-103 -218 0
-104 -219 0
-105 -220 0
-101 -266 0
-102 -267 0
-103 -268 0
-104 -269 0
-105 -270 0
-101 -281 0
-102 -282 0
-103 -283 0
-104 -284 0
-105 -285 0
-101 -351 0
-102 -352 0
-103 -353 0
-104 -354 0
-105 -355 0
-101 -381 0
-102 -382 0
-103 -383 0
-104 -384 0
-105 -385 0
-106 -136 0
-107 -137 0
-108 -138 0
-109 -139 0
-110 -140 0
-106 -141 0
-107 -142 0
-108 -143 0
-109 -144 0
-110 -145 0
-106 -201 0
-107 -202 0
-108 -203 0
-109 -204 0
-110 -205 0
-106 -216 0
-107 -217 0
-108 -218 0
-109 -219 0
-110 -220 0
-106 -261 0
-107 -262 0
-108 -263 0
-109 -264 0
-110 -265 0
-106 -306 0
-107 -307 0
-108 -308 0
-109 -309 0
-110 -310 0
-106 -361 0
-107 -362 0
-108 -363 0
-109 -364 0
-110 -365 0
-106 -371 0
-107 -372 0
-108 -373 0
-109 -374 0
-110 -375 0
-106 -381 0
-107 -382 0
-108 -383 0
-109 -384 0
-110 -385 0
-106 -501 0
-107 -502 0
-108 -503 0
-109 -504 0
-110 -505 0
-106 -506 0
-107 -507 0
-108 -508 0
-109 -509 0
-110 -510 0
-111 -136 0
-112 -137 0
-113 -138 0
-114 -139 0
-115 -140 0
-111 -256 0
-112 -257 0
-113 -258 0
-114 -259 0
-115 -260 0
-111 -431 0
-112 -432 0
-113 -433 0
-114 -434 0
-115 -435 0
-116 -121 0
-117 -122 0
-118 -123 0
-119 -124 0
-120 -125 0
-116 -191 0
-117 -192 0
-118 -193 0
-119 -194 0
-120 -195 0
-116 -276 0
-117 -277 0
-118 -278 0
-119 -279 0
-120 -280 0
-116 -291 0
-117 -292 0
-118 -293 0
-119 -294 0
-120 -295 0
-116 -311 0
-117 -312 0
-118 -313 0
-119 -314 0
-120 -315 0
-116 -396 0
-117 -397 0
-118 -398 0
-119 -399 0
-120 -400 0
-116 -451 0
-117 -452 0
-118 -453 0
-119 -454 0
-120 -455 0
-121 -356 0
-122 -357 0
-123 -358 0
-124 -359 0
-125 -360 0
-121 -466 0
-122 -467 0
-123 -468 0
-124 -469 0
-125 -470 0
-126 -221 0
-127 -222 0
-128 -223 0
-129 -224 0
-130 -225 0
-126 -231 0
-127 -232 0
-128 -233 0
-129 -234 0
-130 -235 0
-126 -271 0
-127 -272 0
-128 -273 0
-129 -274 0
-130 -275 0
-126 -336 0
-127 -337 0
-128 -338 0
-129 -339 0
-130 -340 0
-126 -386 0
-127 -387 0
-128 -388 0
-129 -389 0
-130 -390 0
-126 -446 0
-127 -447 0
-128 -448 0
-129 -449 0
-130 -450 0
-126 -486 0
-127 -487 0
-128 -488 0
-129 -489 0
-130 -490 0
-131 -246 0
-132 -247 0
-133 -248 0
-134 -249 0
-135 -250 0
-131 -251 0
-132 -252 0
-133 -253 0
-134 -254 0
-135 -255 0
-136 -146 0
-137 -147 0
-138 -148 0
-139 -149 0
-140 -150 0
-136 -151 0
-137 -152 0
-138 -153 0
-139 -154 0
-140 -155 0
-136 -271 0
-137 -272 0
-138 -273 0
-139 -274 0
-140 -275 0
-136 -356 0
-137 -357 0
-138 -358 0
-139 -359 0
-140 -360 0
-141 -296 0
-142 -297 0
-143 -298 0
-144 -299 0
-145 -300 0
-141 -306 0
-142 -307 0
-143 -308 0
-144 -309 0
-145 -310 0
-141 -346 0
-142 -347 0
-143 -348 0
-144 -349 0
-145 -350 0
-141 -406 0
-142 -407 0
-143 -408 0
-144 -409 0
-145 -410 0
-141 -461 0
-142 -462 0
-143 -463 0
-144 -464 0
-145 -465 0
-146 -191 0
-147 -192 0
-148 -193 0
-149 -194 0
-150 -195 0
-146 -196 0
-147 -197 0
-148 -198 0
-149 -199 0
-150 -200 0
-146 -381 0
-147 -382 0
-148 -383 0
-149 -384 0
-150 -385 0
-146 -431 0
-147 -432 0
-148 -433 0
-149 -434 0
-150 -435 0
-146 -531 0
-147 -532 0
-148 -533 0
-149 -534 0
-150 -535 0
-151 -156 0
-152 -157 0
-153 -158 0
-154 -159 0
-155 -160 0
-151 -181 0
-152 -182 0
-153 -183 0
-154 -184 0
-155 -185 0
-151 -196 0
-152 -197 0
-153 -198 0
-154 -199 0
-155 -200 0
-151 -286 0
-152 -287 0
-153 -288 0
-154 -289 0
-155 -290 0
-151 -351 0
-152 -352 0
-153 -353 0
-154 -354 0
-155 -355 0
-151 -471 0
-152 -472 0
-153 -473 0
-154 -474 0
-155 -475 0
-151 -496 0
-152 -497 0
-153 -498 0
-154 -499 0
-155 -500 0
-156 -161 0
-157 -162 0
-158 -163 0
-159 -164 0
-160 -165 0
-156 -166 0
-157 -167 0
-158 -168 0
-159 -169 0
-160 -170 0
-156 -396 0
-157 -397 0
-158 -398 0
-159 -399 0
-160 -400 0
-156 -411 0
-157 -412 0
-158 -413 0
-159 -414 0
-160 -415 0
-161 -341 0
-162 -342 0
-163 -343 0
-164 -344 0
-165 -345 0
-161 -401 0
-162 -402 0
-163 -403 0
-164 -404 0
-165 -405 0
-171 -286 0
-172 -287 0
-173 -288 0
-174 -289 0
-175 -290 0
-171 -456 0
-172 -457 0
-173 -458 0
-174 -459 0
-175 -460 0
-176 -331 0
-177 -332 0
-178 -333 0
-179 -334 0
-180 -335 0
-186 -201 0
-187 -202 0
-188 -203 0
-189 -204 0
-190 -205 0
-186 -241 0
-187 -242 0
-188 -243 0
-189 -244 0
-190 -245 0
-186 -251 0
-187 -252 0
-188 -253 0
-189 -254 0
-190 -255 0
-186 -321 0
-187 -322 0
-188 -323 0
-189 -324 0
-190 -325 0
-191 -276 0
-192 -277 0
-193 -278 0
-194 -279 0
-195 -280 0
-196 -426 0
-197 -427 0
-198 -428 0
-199 -429 0
-200 -430 0
-196 -481 0
-197 -482 0
-198 -483 0
-199 -484 0
-200 -485 0
-201 -221 0
-202 -222 0
-203 -223 0
-204 -224 0
-205 -225 0
-201 -306 0
-202 -307 0
-203 -308 0
-204 -309 0
-205 -310 0
-206 -276 0
-207 -277 0
-208 -278 0
-209 -279 0
-210 -280 0
-206 -341 0
-207 -342 0
-208 -343 0
-209 -344 0
-210 -345 0
-206 -526 0
-207 -527 0
-208 -528 0
-209 -529 0
-210 -530 0
-216 -246 0
-217 -247 0
-218 -248 0
-219 -249 0
-220 -250 0
-216 -271 0
-217 -272 0
-218 -273 0
-219 -274 0
-220 -275 0
-216 -526 0
-217 -527 0
-218 -528 0
-219 -529 0
-220 -530 0
-226 -336 0
-227 -337 0
-228 -338 0
-229 -339 0
-230 -340 0
-226 -391 0
-227 -392 0
-228 -393 0
-229 -394 0
-230 -395 0
-226 -471 0
-227 -472 0
-228 -473 0
-229 -474 0
-230 -475 0
-236 -286 0
-237 -287 0
-238 -288 0
-239 -289 0
-240 -290 0
-236 -346 0
-237 -347 0
-238 -348 0
-239 -349 0
-240 -350 0
-236 -371 0
-237 -372 0
-238 -373 0
-239 -374 0
-240 -375 0
-236 -416 0
-237 -417 0
-238 -418 0
-239 -419 0
-240 -420 0
-236 -481 0
-237 -482 0
-238 -483 0
-239 -484 0
-240 -485 0
-241 -256 0
-242 -257 0
-243 -258 0
-244 -259 0
-245 -260 0
-241 -266 0
-242 -267 0
-243 -268 0
-244 -269 0
-245 -270 0
-241 -441 0
-242 -442 0
-243 -443 0
-244 -444 0
-245 -445 0
-241 -456 0
-242 -457 0
-243 -458 0
-244 -459 0
-245 -460 0
-241 -461 0
-242 -462 0
-243 -463 0
-244 -464 0
-245 -465 0
-241 -531 0
-242 -532 0
-243 -533 0
-244 -534 0
-245 -535 0
-246 -326 0
-247 -327 0
-248 -328 0
-249 -329 0
-250 -330 0
-246 -391 0
-247 -392 0
-248 -393 0
-249 -394 0
-250 -395 0
-246 -466 0
-247 -467 0
-248 -468 0
-249 -469 0
-250 -470 0
-251 -326 0
-252 -327 0
-253 -328 0
-254 -329 0
-255 -330 0
-256 -266 0
-257 -267 0
-258 -268 0
-259 -269 0
-260 -270 0
-256 -341 0
-257 -342 0
-258 -343 0
-259 -344 0
-260 -345 0
-266 -356 0
-267 -357 0
-268 -358 0
-269 -359 0
-270 -360 0
-266 -411 0
-267 -412 0
-268 -413 0
-269 -414 0
-270 -415 0
-266 -421 0
-267 -422 0
-268 -423 0
-269 -424 0
-270 -425 0
-266 -451 0
-267 -452 0
-268 -453 0
-269 -454 0
-270 -455 0
-271 -301 0
-272 -302 0
-273 -303 0
-274 -304 0
-275 -305 0
-271 -501 0
-272 -502 0
-273 -503 0
-274 -504 0
-275 -505 0
-271 -516 0
-272 -517 0
-273 -518 0
-274 -519 0
-275 -520 0
-271 -526 0
-272 -527 0
-273 -528 0
-274 -529 0
-275 -530 0
-276 -436 0
-277 -437 0
-278 -438 0
-279 -439 0
-280 -440 0
-276 -511 0
-277 -512 0
-278 -513 0
-279 -514 0
-280 -515 0
-281 -291 0
-282 -292 0
-283 -293 0
-284 -294 0
-285 -295 0
-281 -301 0
-282 -302 0
-283 -303 0
-284 -304 0
-285 -305 0
-286 -366 0
-287 -367 0
-288 -368 0
-289 -369 0
-290 -370 0
-286 -411 0
-287 -412 0
-288 -413 0
-289 -414 0
-290 -415 0
-286 -436 0
-287 -437 0
-288 -438 0
-289 -439 0
-290 -440 0
-286 -456 0
-287 -457 0
-288 -458 0
-289 -459 0
-290 -460 0
-301 -316 0
-302 -317 0
-303 -318 0
-304 -319 0
-305 -320 0
-306 -396 0
-307 -397 0
-308 -398 0
-309 -399 0
-310 -400 0
-311 -331 0
-312 -332 0
-313 -333 0
-314 -334 0
-315 -335 0
-311 -491 0
-312 -492 0
-313 -493 0
-314 -494 0
-315 -495 0
-316 -321 0
-317 -322 0
-318 -323 0
-319 -324 0
-320 -325 0
-321 -336 0
-322 -337 0
-323 -338 0
-324 -339 0
-325 -340 0
-321 -446 0
-322 -447 0
-323 -448 0
-324 -449 0
-325 -450 0
-326 -366 0
-327 -367 0
-328 -368 0
-329 -369 0
-330 -370 0
-331 -386 0
-332 -387 0
-333 -388 0
-334 -389 0
-335 -390 0
-331 -516 0
-332 -517 0
-333 -518 0
-334 -519 0
-335 -520 0
-336 -491 0
-337 -492 0
-338 -493 0
-339 -494 0
-340 -495 0
-341 -401 0
-342 -402 0
-343 -403 0
-344 -404 0
-345 -405 0
-341 -436 0
-342 -437 0
-343 -438 0
-344 -439 0
-345 -440 0
-341 -486 0
-342 -487 0
-343 -488 0
-344 -489 0
-345 -490 0
-351 -471 0
-352 -472 0
-353 -473 0
-354 -474 0
-355 -475 0
-356 -441 0
-357 -442 0
-358 -443 0
-359 -444 0
-360 -445 0
-356 -476 0
-357 -477 0
-358 -478 0
-359 -479 0
-360 -480 0
-361 -431 0
-362 -432 0
-363 -433 0
-364 -434 0
-365 -435 0
-361 -476 0
-362 -477 0
-363 -478 0
-364 -479 0
-365 -480 0
-361 -516 0
-362 -517 0
-363 -518 0
-364 -519 0
-365 -520 0
-366 -401 0
-367 -402 0
-368 -403 0
-369 -404 0
-370 -405 0
-376 -451 0
-377 -452 0
-378 -453 0
-379 -454 0
-380 -455 0
-376 -481 0
-377 -482 0
-378 -483 0
-379 -484 0
-380 -485 0
-401 -466 0
-402 -467 0
-403 -468 0
-404 -469 0
-405 -470 0
-406 -431 0
-407 -432 0
-408 -433 0
-409 -434 0
-410 -435 0
-406 -461 0
-407 -462 0
-408 -463 0
-409 -464 0
-410 -465 0
-421 -466 0
-422 -467 0
-423 -468 0
-424 -469 0
-425 -470 0
-421 -521 0
-422 -522 0
-423 -523 0
-424 -524 0
-425 -525 0
-451 -511 0
-452 -512 0
-453 -513 0
-454 -514 0
-455 -515 0
-456 -496 0
-457 -497 0
-458 -498 0
-459 -499 0
-460 -500 0